c Generated map
c Size: 12 * 12, weights in range: 1 to 10, walls: False, with ratio 0.0
c dim 5 of 5
c
p sp 144 264
c graph contains 144 nodes and 264 arcs
c
a 1 13 9
a 13 1 9
a 1 2 6
a 2 1 6
a 2 14 6
a 14 2 6
a 2 3 5
a 3 2 5
a 3 15 1
a 15 3 1
a 3 4 3
a 4 3 3
a 4 16 8
a 16 4 8
a 4 5 7
a 5 4 7
a 5 17 5
a 17 5 5
a 5 6 6
a 6 5 6
a 6 18 1
a 18 6 1
a 6 7 3
a 7 6 3
a 7 19 1
a 19 7 1
a 7 8 6
a 8 7 6
a 8 20 9
a 20 8 9
a 8 9 4
a 9 8 4
a 9 21 1
a 21 9 1
a 9 10 8
a 10 9 8
a 10 22 10
a 22 10 10
a 10 11 7
a 11 10 7
a 11 23 7
a 23 11 7
a 11 12 3
a 12 11 3
a 12 24 7
a 24 12 7
a 13 25 10
a 25 13 10
a 13 14 8
a 14 13 8
a 14 26 8
a 26 14 8
a 14 15 10
a 15 14 10
a 15 27 1
a 27 15 1
a 15 16 5
a 16 15 5
a 16 28 1
a 28 16 1
a 16 17 7
a 17 16 7
a 17 29 4
a 29 17 4
a 17 18 7
a 18 17 7
a 18 30 5
a 30 18 5
a 18 19 7
a 19 18 7
a 19 31 8
a 31 19 8
a 19 20 5
a 20 19 5
a 20 32 4
a 32 20 4
a 20 21 10
a 21 20 10
a 21 33 1
a 33 21 1
a 21 22 9
a 22 21 9
a 22 34 2
a 34 22 2
a 22 23 2
a 23 22 2
a 23 35 3
a 35 23 3
a 23 24 1
a 24 23 1
a 24 36 8
a 36 24 8
a 25 37 7
a 37 25 7
a 25 26 2
a 26 25 2
a 26 38 3
a 38 26 3
a 26 27 6
a 27 26 6
a 27 39 4
a 39 27 4
a 27 28 9
a 28 27 9
a 28 40 1
a 40 28 1
a 28 29 7
a 29 28 7
a 29 41 5
a 41 29 5
a 29 30 3
a 30 29 3
a 30 42 9
a 42 30 9
a 30 31 8
a 31 30 8
a 31 43 1
a 43 31 1
a 31 32 8
a 32 31 8
a 32 44 7
a 44 32 7
a 32 33 9
a 33 32 9
a 33 45 10
a 45 33 10
a 33 34 8
a 34 33 8
a 34 46 4
a 46 34 4
a 34 35 1
a 35 34 1
a 35 47 9
a 47 35 9
a 35 36 9
a 36 35 9
a 36 48 3
a 48 36 3
a 37 49 6
a 49 37 6
a 37 38 2
a 38 37 2
a 38 50 6
a 50 38 6
a 38 39 2
a 39 38 2
a 39 51 1
a 51 39 1
a 39 40 1
a 40 39 1
a 40 52 2
a 52 40 2
a 40 41 8
a 41 40 8
a 41 53 7
a 53 41 7
a 41 42 8
a 42 41 8
a 42 54 3
a 54 42 3
a 42 43 6
a 43 42 6
a 43 55 6
a 55 43 6
a 43 44 10
a 44 43 10
a 44 56 7
a 56 44 7
a 44 45 7
a 45 44 7
a 45 57 9
a 57 45 9
a 45 46 3
a 46 45 3
a 46 58 8
a 58 46 8
a 46 47 2
a 47 46 2
a 47 59 4
a 59 47 4
a 47 48 10
a 48 47 10
a 48 60 3
a 60 48 3
a 49 61 1
a 61 49 1
a 49 50 3
a 50 49 3
a 50 62 10
a 62 50 10
a 50 51 4
a 51 50 4
a 51 63 7
a 63 51 7
a 51 52 7
a 52 51 7
a 52 64 10
a 64 52 10
a 52 53 2
a 53 52 2
a 53 65 10
a 65 53 10
a 53 54 5
a 54 53 5
a 54 66 6
a 66 54 6
a 54 55 2
a 55 54 2
a 55 67 8
a 67 55 8
a 55 56 4
a 56 55 4
a 56 68 2
a 68 56 2
a 56 57 6
a 57 56 6
a 57 69 8
a 69 57 8
a 57 58 3
a 58 57 3
a 58 70 8
a 70 58 8
a 58 59 9
a 59 58 9
a 59 71 7
a 71 59 7
a 59 60 3
a 60 59 3
a 60 72 1
a 72 60 1
a 61 73 2
a 73 61 2
a 61 62 6
a 62 61 6
a 62 74 3
a 74 62 3
a 62 63 6
a 63 62 6
a 63 75 6
a 75 63 6
a 63 64 5
a 64 63 5
a 64 76 3
a 76 64 3
a 64 65 4
a 65 64 4
a 65 77 10
a 77 65 10
a 65 66 5
a 66 65 5
a 66 78 2
a 78 66 2
a 66 67 9
a 67 66 9
a 67 79 7
a 79 67 7
a 67 68 10
a 68 67 10
a 68 80 6
a 80 68 6
a 68 69 3
a 69 68 3
a 69 81 2
a 81 69 2
a 69 70 3
a 70 69 3
a 70 82 10
a 82 70 10
a 70 71 9
a 71 70 9
a 71 83 2
a 83 71 2
a 71 72 10
a 72 71 10
a 72 84 9
a 84 72 9
a 73 85 10
a 85 73 10
a 73 74 6
a 74 73 6
a 74 86 4
a 86 74 4
a 74 75 3
a 75 74 3
a 75 87 9
a 87 75 9
a 75 76 8
a 76 75 8
a 76 88 10
a 88 76 10
a 76 77 10
a 77 76 10
a 77 89 8
a 89 77 8
a 77 78 4
a 78 77 4
a 78 90 8
a 90 78 8
a 78 79 3
a 79 78 3
a 79 91 5
a 91 79 5
a 79 80 5
a 80 79 5
a 80 92 9
a 92 80 9
a 80 81 1
a 81 80 1
a 81 93 7
a 93 81 7
a 81 82 8
a 82 81 8
a 82 94 7
a 94 82 7
a 82 83 8
a 83 82 8
a 83 95 3
a 95 83 3
a 83 84 10
a 84 83 10
a 84 96 5
a 96 84 5
a 85 97 9
a 97 85 9
a 85 86 2
a 86 85 2
a 86 98 4
a 98 86 4
a 86 87 1
a 87 86 1
a 87 99 10
a 99 87 10
a 87 88 8
a 88 87 8
a 88 100 1
a 100 88 1
a 88 89 10
a 89 88 10
a 89 101 4
a 101 89 4
a 89 90 2
a 90 89 2
a 90 102 7
a 102 90 7
a 90 91 5
a 91 90 5
a 91 103 5
a 103 91 5
a 91 92 3
a 92 91 3
a 92 104 5
a 104 92 5
a 92 93 4
a 93 92 4
a 93 105 5
a 105 93 5
a 93 94 5
a 94 93 5
a 94 106 4
a 106 94 4
a 94 95 10
a 95 94 10
a 95 107 10
a 107 95 10
a 95 96 9
a 96 95 9
a 96 108 10
a 108 96 10
a 97 109 9
a 109 97 9
a 97 98 9
a 98 97 9
a 98 110 3
a 110 98 3
a 98 99 2
a 99 98 2
a 99 111 2
a 111 99 2
a 99 100 9
a 100 99 9
a 100 112 2
a 112 100 2
a 100 101 5
a 101 100 5
a 101 113 6
a 113 101 6
a 101 102 10
a 102 101 10
a 102 114 2
a 114 102 2
a 102 103 4
a 103 102 4
a 103 115 2
a 115 103 2
a 103 104 6
a 104 103 6
a 104 116 6
a 116 104 6
a 104 105 5
a 105 104 5
a 105 117 4
a 117 105 4
a 105 106 10
a 106 105 10
a 106 118 10
a 118 106 10
a 106 107 5
a 107 106 5
a 107 119 3
a 119 107 3
a 107 108 4
a 108 107 4
a 108 120 6
a 120 108 6
a 109 121 8
a 121 109 8
a 109 110 6
a 110 109 6
a 110 122 3
a 122 110 3
a 110 111 7
a 111 110 7
a 111 123 10
a 123 111 10
a 111 112 9
a 112 111 9
a 112 124 1
a 124 112 1
a 112 113 9
a 113 112 9
a 113 125 3
a 125 113 3
a 113 114 9
a 114 113 9
a 114 126 3
a 126 114 3
a 114 115 7
a 115 114 7
a 115 127 10
a 127 115 10
a 115 116 8
a 116 115 8
a 116 128 3
a 128 116 3
a 116 117 8
a 117 116 8
a 117 129 10
a 129 117 10
a 117 118 10
a 118 117 10
a 118 130 9
a 130 118 9
a 118 119 5
a 119 118 5
a 119 131 7
a 131 119 7
a 119 120 6
a 120 119 6
a 120 132 10
a 132 120 10
a 121 133 4
a 133 121 4
a 121 122 3
a 122 121 3
a 122 134 2
a 134 122 2
a 122 123 7
a 123 122 7
a 123 135 2
a 135 123 2
a 123 124 10
a 124 123 10
a 124 136 4
a 136 124 4
a 124 125 7
a 125 124 7
a 125 137 1
a 137 125 1
a 125 126 7
a 126 125 7
a 126 138 5
a 138 126 5
a 126 127 6
a 127 126 6
a 127 139 9
a 139 127 9
a 127 128 8
a 128 127 8
a 128 140 1
a 140 128 1
a 128 129 5
a 129 128 5
a 129 141 2
a 141 129 2
a 129 130 9
a 130 129 9
a 130 142 1
a 142 130 1
a 130 131 2
a 131 130 2
a 131 143 7
a 143 131 7
a 131 132 7
a 132 131 7
a 132 144 7
a 144 132 7
a 133 134 4
a 134 133 4
a 134 135 2
a 135 134 2
a 135 136 9
a 136 135 9
a 136 137 2
a 137 136 2
a 137 138 7
a 138 137 7
a 138 139 4
a 139 138 4
a 139 140 6
a 140 139 6
a 140 141 8
a 141 140 8
a 141 142 6
a 142 141 6
a 142 143 5
a 143 142 5
a 143 144 3
a 144 143 3
